<instance format="XCSP3" type="COP">
  <variables>
    <array id="p" note="p[i] is the ith scheduled product" size="[10]"> 0..9 </array>
    <array id="np" note="np[i][j] is the number of products made at time j and required by customer i" size="[10][10]">
      <domain for="np[0][] np[4][] np[7][] np[8][] np[9][]"> 0..2 </domain>
      <domain for="np[1][] np[2][] np[5][]"> 0..3 </domain>
      <domain for="np[3][]"> 0..5 </domain>
      <domain for="np[6][]"> 0 1 </domain>
    </array>
    <array id="r" note="r[i][j] is 1 iff the product made at time j concerns customer i" size="[10][10]"> 0 1 </array>
    <array id="o" note="o[i][j] is 1 iff the stack is open for customer i at time j" size="[10][10]"> 0 1 </array>
    <array id="so" note="so[j] is the number of stacks open at time j" size="[10]"> 0..10 </array>
  </variables>
  <constraints>
    <allDifferent> p[] </allDifferent>
    <group>
      <element>
        <list> 0 0 0 0 1 0 0 1 0 0 </list>
        <index> %0 </index>
        <value> %1 </value>
      </element>
      <args> p[0] r[0][0] </args>
      <args> p[1] r[0][1] </args>
      <args> p[2] r[0][2] </args>
      <args> p[3] r[0][3] </args>
      <args> p[4] r[0][4] </args>
      <args> p[5] r[0][5] </args>
      <args> p[6] r[0][6] </args>
      <args> p[7] r[0][7] </args>
      <args> p[8] r[0][8] </args>
      <args> p[9] r[0][9] </args>
    </group>
    <group>
      <element>
        <list> 0 0 1 0 0 1 0 0 0 1 </list>
        <index> %0 </index>
        <value> %1 </value>
      </element>
      <args> p[0] r[1][0] </args>
      <args> p[1] r[1][1] </args>
      <args> p[2] r[1][2] </args>
      <args> p[3] r[1][3] </args>
      <args> p[4] r[1][4] </args>
      <args> p[5] r[1][5] </args>
      <args> p[6] r[1][6] </args>
      <args> p[7] r[1][7] </args>
      <args> p[8] r[1][8] </args>
      <args> p[9] r[1][9] </args>
    </group>
    <group>
      <element>
        <list> 1 0 0 1 0 0 0 0 0 1 </list>
        <index> %0 </index>
        <value> %1 </value>
      </element>
      <args> p[0] r[2][0] </args>
      <args> p[1] r[2][1] </args>
      <args> p[2] r[2][2] </args>
      <args> p[3] r[2][3] </args>
      <args> p[4] r[2][4] </args>
      <args> p[5] r[2][5] </args>
      <args> p[6] r[2][6] </args>
      <args> p[7] r[2][7] </args>
      <args> p[8] r[2][8] </args>
      <args> p[9] r[2][9] </args>
    </group>
    <group>
      <element>
        <list> 1 0 1 0 1 0 1 1 0 0 </list>
        <index> %0 </index>
        <value> %1 </value>
      </element>
      <args> p[0] r[3][0] </args>
      <args> p[1] r[3][1] </args>
      <args> p[2] r[3][2] </args>
      <args> p[3] r[3][3] </args>
      <args> p[4] r[3][4] </args>
      <args> p[5] r[3][5] </args>
      <args> p[6] r[3][6] </args>
      <args> p[7] r[3][7] </args>
      <args> p[8] r[3][8] </args>
      <args> p[9] r[3][9] </args>
    </group>
    <group>
      <element>
        <list> 0 0 0 0 0 0 0 1 1 0 </list>
        <index> %0 </index>
        <value> %1 </value>
      </element>
      <args> p[0] r[4][0] </args>
      <args> p[1] r[4][1] </args>
      <args> p[2] r[4][2] </args>
      <args> p[3] r[4][3] </args>
      <args> p[4] r[4][4] </args>
      <args> p[5] r[4][5] </args>
      <args> p[6] r[4][6] </args>
      <args> p[7] r[4][7] </args>
      <args> p[8] r[4][8] </args>
      <args> p[9] r[4][9] </args>
    </group>
    <group>
      <element>
        <list> 0 0 0 0 1 0 1 0 1 0 </list>
        <index> %0 </index>
        <value> %1 </value>
      </element>
      <args> p[0] r[5][0] </args>
      <args> p[1] r[5][1] </args>
      <args> p[2] r[5][2] </args>
      <args> p[3] r[5][3] </args>
      <args> p[4] r[5][4] </args>
      <args> p[5] r[5][5] </args>
      <args> p[6] r[5][6] </args>
      <args> p[7] r[5][7] </args>
      <args> p[8] r[5][8] </args>
      <args> p[9] r[5][9] </args>
    </group>
    <group>
      <element>
        <list> 0 0 0 0 0 0 1 0 0 0 </list>
        <index> %0 </index>
        <value> %1 </value>
      </element>
      <args> p[0] r[6][0] </args>
      <args> p[1] r[6][1] </args>
      <args> p[2] r[6][2] </args>
      <args> p[3] r[6][3] </args>
      <args> p[4] r[6][4] </args>
      <args> p[5] r[6][5] </args>
      <args> p[6] r[6][6] </args>
      <args> p[7] r[6][7] </args>
      <args> p[8] r[6][8] </args>
      <args> p[9] r[6][9] </args>
    </group>
    <group>
      <element>
        <list> 0 1 0 0 0 0 0 1 0 0 </list>
        <index> %0 </index>
        <value> %1 </value>
      </element>
      <args> p[0] r[7][0] </args>
      <args> p[1] r[7][1] </args>
      <args> p[2] r[7][2] </args>
      <args> p[3] r[7][3] </args>
      <args> p[4] r[7][4] </args>
      <args> p[5] r[7][5] </args>
      <args> p[6] r[7][6] </args>
      <args> p[7] r[7][7] </args>
      <args> p[8] r[7][8] </args>
      <args> p[9] r[7][9] </args>
    </group>
    <group>
      <element>
        <list> 0 0 0 1 0 0 1 0 0 0 </list>
        <index> %0 </index>
        <value> %1 </value>
      </element>
      <args> p[0] r[8][0] </args>
      <args> p[1] r[8][1] </args>
      <args> p[2] r[8][2] </args>
      <args> p[3] r[8][3] </args>
      <args> p[4] r[8][4] </args>
      <args> p[5] r[8][5] </args>
      <args> p[6] r[8][6] </args>
      <args> p[7] r[8][7] </args>
      <args> p[8] r[8][8] </args>
      <args> p[9] r[8][9] </args>
    </group>
    <group>
      <element>
        <list> 0 1 0 0 0 0 0 0 1 0 </list>
        <index> %0 </index>
        <value> %1 </value>
      </element>
      <args> p[0] r[9][0] </args>
      <args> p[1] r[9][1] </args>
      <args> p[2] r[9][2] </args>
      <args> p[3] r[9][3] </args>
      <args> p[4] r[9][4] </args>
      <args> p[5] r[9][5] </args>
      <args> p[6] r[9][6] </args>
      <args> p[7] r[9][7] </args>
      <args> p[8] r[9][8] </args>
      <args> p[9] r[9][9] </args>
    </group>
    <group>
      <intension> eq(%0,%1) </intension>
      <args> np[0][0] r[0][0] </args>
      <args> np[1][0] r[1][0] </args>
      <args> np[2][0] r[2][0] </args>
      <args> np[3][0] r[3][0] </args>
      <args> np[4][0] r[4][0] </args>
      <args> np[5][0] r[5][0] </args>
      <args> np[6][0] r[6][0] </args>
      <args> np[7][0] r[7][0] </args>
      <args> np[8][0] r[8][0] </args>
      <args> np[9][0] r[9][0] </args>
    </group>
    <group>
      <intension> eq(%0,add(%1,%2)) </intension>
      <args> np[0][1] np[0][0] r[0][1] </args>
      <args> np[0][2] np[0][1] r[0][2] </args>
      <args> np[0][3] np[0][2] r[0][3] </args>
      <args> np[0][4] np[0][3] r[0][4] </args>
      <args> np[0][5] np[0][4] r[0][5] </args>
      <args> np[0][6] np[0][5] r[0][6] </args>
      <args> np[0][7] np[0][6] r[0][7] </args>
      <args> np[0][8] np[0][7] r[0][8] </args>
      <args> np[0][9] np[0][8] r[0][9] </args>
      <args> np[1][1] np[1][0] r[1][1] </args>
      <args> np[1][2] np[1][1] r[1][2] </args>
      <args> np[1][3] np[1][2] r[1][3] </args>
      <args> np[1][4] np[1][3] r[1][4] </args>
      <args> np[1][5] np[1][4] r[1][5] </args>
      <args> np[1][6] np[1][5] r[1][6] </args>
      <args> np[1][7] np[1][6] r[1][7] </args>
      <args> np[1][8] np[1][7] r[1][8] </args>
      <args> np[1][9] np[1][8] r[1][9] </args>
      <args> np[2][1] np[2][0] r[2][1] </args>
      <args> np[2][2] np[2][1] r[2][2] </args>
      <args> np[2][3] np[2][2] r[2][3] </args>
      <args> np[2][4] np[2][3] r[2][4] </args>
      <args> np[2][5] np[2][4] r[2][5] </args>
      <args> np[2][6] np[2][5] r[2][6] </args>
      <args> np[2][7] np[2][6] r[2][7] </args>
      <args> np[2][8] np[2][7] r[2][8] </args>
      <args> np[2][9] np[2][8] r[2][9] </args>
      <args> np[3][1] np[3][0] r[3][1] </args>
      <args> np[3][2] np[3][1] r[3][2] </args>
      <args> np[3][3] np[3][2] r[3][3] </args>
      <args> np[3][4] np[3][3] r[3][4] </args>
      <args> np[3][5] np[3][4] r[3][5] </args>
      <args> np[3][6] np[3][5] r[3][6] </args>
      <args> np[3][7] np[3][6] r[3][7] </args>
      <args> np[3][8] np[3][7] r[3][8] </args>
      <args> np[3][9] np[3][8] r[3][9] </args>
      <args> np[4][1] np[4][0] r[4][1] </args>
      <args> np[4][2] np[4][1] r[4][2] </args>
      <args> np[4][3] np[4][2] r[4][3] </args>
      <args> np[4][4] np[4][3] r[4][4] </args>
      <args> np[4][5] np[4][4] r[4][5] </args>
      <args> np[4][6] np[4][5] r[4][6] </args>
      <args> np[4][7] np[4][6] r[4][7] </args>
      <args> np[4][8] np[4][7] r[4][8] </args>
      <args> np[4][9] np[4][8] r[4][9] </args>
      <args> np[5][1] np[5][0] r[5][1] </args>
      <args> np[5][2] np[5][1] r[5][2] </args>
      <args> np[5][3] np[5][2] r[5][3] </args>
      <args> np[5][4] np[5][3] r[5][4] </args>
      <args> np[5][5] np[5][4] r[5][5] </args>
      <args> np[5][6] np[5][5] r[5][6] </args>
      <args> np[5][7] np[5][6] r[5][7] </args>
      <args> np[5][8] np[5][7] r[5][8] </args>
      <args> np[5][9] np[5][8] r[5][9] </args>
      <args> np[6][1] np[6][0] r[6][1] </args>
      <args> np[6][2] np[6][1] r[6][2] </args>
      <args> np[6][3] np[6][2] r[6][3] </args>
      <args> np[6][4] np[6][3] r[6][4] </args>
      <args> np[6][5] np[6][4] r[6][5] </args>
      <args> np[6][6] np[6][5] r[6][6] </args>
      <args> np[6][7] np[6][6] r[6][7] </args>
      <args> np[6][8] np[6][7] r[6][8] </args>
      <args> np[6][9] np[6][8] r[6][9] </args>
      <args> np[7][1] np[7][0] r[7][1] </args>
      <args> np[7][2] np[7][1] r[7][2] </args>
      <args> np[7][3] np[7][2] r[7][3] </args>
      <args> np[7][4] np[7][3] r[7][4] </args>
      <args> np[7][5] np[7][4] r[7][5] </args>
      <args> np[7][6] np[7][5] r[7][6] </args>
      <args> np[7][7] np[7][6] r[7][7] </args>
      <args> np[7][8] np[7][7] r[7][8] </args>
      <args> np[7][9] np[7][8] r[7][9] </args>
      <args> np[8][1] np[8][0] r[8][1] </args>
      <args> np[8][2] np[8][1] r[8][2] </args>
      <args> np[8][3] np[8][2] r[8][3] </args>
      <args> np[8][4] np[8][3] r[8][4] </args>
      <args> np[8][5] np[8][4] r[8][5] </args>
      <args> np[8][6] np[8][5] r[8][6] </args>
      <args> np[8][7] np[8][6] r[8][7] </args>
      <args> np[8][8] np[8][7] r[8][8] </args>
      <args> np[8][9] np[8][8] r[8][9] </args>
      <args> np[9][1] np[9][0] r[9][1] </args>
      <args> np[9][2] np[9][1] r[9][2] </args>
      <args> np[9][3] np[9][2] r[9][3] </args>
      <args> np[9][4] np[9][3] r[9][4] </args>
      <args> np[9][5] np[9][4] r[9][5] </args>
      <args> np[9][6] np[9][5] r[9][6] </args>
      <args> np[9][7] np[9][6] r[9][7] </args>
      <args> np[9][8] np[9][7] r[9][8] </args>
      <args> np[9][9] np[9][8] r[9][9] </args>
    </group>
    <block>
      <group>
        <extension>
          <list> %0 %1 %2 </list>
          <supports> (0,0,0)(1,0,0)(1,1,1) </supports>
        </extension>
        <args> np[6][0] r[6][0] o[6][0] </args>
        <args> np[6][1] r[6][1] o[6][1] </args>
        <args> np[6][2] r[6][2] o[6][2] </args>
        <args> np[6][3] r[6][3] o[6][3] </args>
        <args> np[6][4] r[6][4] o[6][4] </args>
        <args> np[6][5] r[6][5] o[6][5] </args>
        <args> np[6][6] r[6][6] o[6][6] </args>
        <args> np[6][7] r[6][7] o[6][7] </args>
        <args> np[6][8] r[6][8] o[6][8] </args>
        <args> np[6][9] r[6][9] o[6][9] </args>
      </group>
      <group>
        <extension>
          <list> %0 %1 %2 </list>
          <supports> (0,0,0)(1,*,1)(2,0,0)(2,1,1) </supports>
        </extension>
        <args> np[0][0] r[0][0] o[0][0] </args>
        <args> np[0][1] r[0][1] o[0][1] </args>
        <args> np[0][2] r[0][2] o[0][2] </args>
        <args> np[0][3] r[0][3] o[0][3] </args>
        <args> np[0][4] r[0][4] o[0][4] </args>
        <args> np[0][5] r[0][5] o[0][5] </args>
        <args> np[0][6] r[0][6] o[0][6] </args>
        <args> np[0][7] r[0][7] o[0][7] </args>
        <args> np[0][8] r[0][8] o[0][8] </args>
        <args> np[0][9] r[0][9] o[0][9] </args>
        <args> np[4][0] r[4][0] o[4][0] </args>
        <args> np[4][1] r[4][1] o[4][1] </args>
        <args> np[4][2] r[4][2] o[4][2] </args>
        <args> np[4][3] r[4][3] o[4][3] </args>
        <args> np[4][4] r[4][4] o[4][4] </args>
        <args> np[4][5] r[4][5] o[4][5] </args>
        <args> np[4][6] r[4][6] o[4][6] </args>
        <args> np[4][7] r[4][7] o[4][7] </args>
        <args> np[4][8] r[4][8] o[4][8] </args>
        <args> np[4][9] r[4][9] o[4][9] </args>
        <args> np[7][0] r[7][0] o[7][0] </args>
        <args> np[7][1] r[7][1] o[7][1] </args>
        <args> np[7][2] r[7][2] o[7][2] </args>
        <args> np[7][3] r[7][3] o[7][3] </args>
        <args> np[7][4] r[7][4] o[7][4] </args>
        <args> np[7][5] r[7][5] o[7][5] </args>
        <args> np[7][6] r[7][6] o[7][6] </args>
        <args> np[7][7] r[7][7] o[7][7] </args>
        <args> np[7][8] r[7][8] o[7][8] </args>
        <args> np[7][9] r[7][9] o[7][9] </args>
        <args> np[8][0] r[8][0] o[8][0] </args>
        <args> np[8][1] r[8][1] o[8][1] </args>
        <args> np[8][2] r[8][2] o[8][2] </args>
        <args> np[8][3] r[8][3] o[8][3] </args>
        <args> np[8][4] r[8][4] o[8][4] </args>
        <args> np[8][5] r[8][5] o[8][5] </args>
        <args> np[8][6] r[8][6] o[8][6] </args>
        <args> np[8][7] r[8][7] o[8][7] </args>
        <args> np[8][8] r[8][8] o[8][8] </args>
        <args> np[8][9] r[8][9] o[8][9] </args>
        <args> np[9][0] r[9][0] o[9][0] </args>
        <args> np[9][1] r[9][1] o[9][1] </args>
        <args> np[9][2] r[9][2] o[9][2] </args>
        <args> np[9][3] r[9][3] o[9][3] </args>
        <args> np[9][4] r[9][4] o[9][4] </args>
        <args> np[9][5] r[9][5] o[9][5] </args>
        <args> np[9][6] r[9][6] o[9][6] </args>
        <args> np[9][7] r[9][7] o[9][7] </args>
        <args> np[9][8] r[9][8] o[9][8] </args>
        <args> np[9][9] r[9][9] o[9][9] </args>
      </group>
      <group>
        <extension>
          <list> %0 %1 %2 </list>
          <supports> (0,0,0)(1,*,1)(2,*,1)(3,0,0)(3,1,1) </supports>
        </extension>
        <args> np[1][0] r[1][0] o[1][0] </args>
        <args> np[1][1] r[1][1] o[1][1] </args>
        <args> np[1][2] r[1][2] o[1][2] </args>
        <args> np[1][3] r[1][3] o[1][3] </args>
        <args> np[1][4] r[1][4] o[1][4] </args>
        <args> np[1][5] r[1][5] o[1][5] </args>
        <args> np[1][6] r[1][6] o[1][6] </args>
        <args> np[1][7] r[1][7] o[1][7] </args>
        <args> np[1][8] r[1][8] o[1][8] </args>
        <args> np[1][9] r[1][9] o[1][9] </args>
        <args> np[2][0] r[2][0] o[2][0] </args>
        <args> np[2][1] r[2][1] o[2][1] </args>
        <args> np[2][2] r[2][2] o[2][2] </args>
        <args> np[2][3] r[2][3] o[2][3] </args>
        <args> np[2][4] r[2][4] o[2][4] </args>
        <args> np[2][5] r[2][5] o[2][5] </args>
        <args> np[2][6] r[2][6] o[2][6] </args>
        <args> np[2][7] r[2][7] o[2][7] </args>
        <args> np[2][8] r[2][8] o[2][8] </args>
        <args> np[2][9] r[2][9] o[2][9] </args>
        <args> np[5][0] r[5][0] o[5][0] </args>
        <args> np[5][1] r[5][1] o[5][1] </args>
        <args> np[5][2] r[5][2] o[5][2] </args>
        <args> np[5][3] r[5][3] o[5][3] </args>
        <args> np[5][4] r[5][4] o[5][4] </args>
        <args> np[5][5] r[5][5] o[5][5] </args>
        <args> np[5][6] r[5][6] o[5][6] </args>
        <args> np[5][7] r[5][7] o[5][7] </args>
        <args> np[5][8] r[5][8] o[5][8] </args>
        <args> np[5][9] r[5][9] o[5][9] </args>
      </group>
      <group>
        <extension>
          <list> %0 %1 %2 </list>
          <supports> (0,0,0)(1,*,1)(2,*,1)(3,*,1)(4,*,1)(5,0,0)(5,1,1) </supports>
        </extension>
        <args> np[3][0] r[3][0] o[3][0] </args>
        <args> np[3][1] r[3][1] o[3][1] </args>
        <args> np[3][2] r[3][2] o[3][2] </args>
        <args> np[3][3] r[3][3] o[3][3] </args>
        <args> np[3][4] r[3][4] o[3][4] </args>
        <args> np[3][5] r[3][5] o[3][5] </args>
        <args> np[3][6] r[3][6] o[3][6] </args>
        <args> np[3][7] r[3][7] o[3][7] </args>
        <args> np[3][8] r[3][8] o[3][8] </args>
        <args> np[3][9] r[3][9] o[3][9] </args>
      </group>
    </block>
    <sum>
      <list> o[][0] </list>
      <condition> (eq,so[0]) </condition>
    </sum>
    <sum>
      <list> o[][1] </list>
      <condition> (eq,so[1]) </condition>
    </sum>
    <sum>
      <list> o[][2] </list>
      <condition> (eq,so[2]) </condition>
    </sum>
    <sum>
      <list> o[][3] </list>
      <condition> (eq,so[3]) </condition>
    </sum>
    <sum>
      <list> o[][4] </list>
      <condition> (eq,so[4]) </condition>
    </sum>
    <sum>
      <list> o[][5] </list>
      <condition> (eq,so[5]) </condition>
    </sum>
    <sum>
      <list> o[][6] </list>
      <condition> (eq,so[6]) </condition>
    </sum>
    <sum>
      <list> o[][7] </list>
      <condition> (eq,so[7]) </condition>
    </sum>
    <sum>
      <list> o[][8] </list>
      <condition> (eq,so[8]) </condition>
    </sum>
    <sum>
      <list> o[][9] </list>
      <condition> (eq,so[9]) </condition>
    </sum>
  </constraints>
  <objectives>
    <minimize type="maximum"> so[] </minimize>
  </objectives>
</instance>
